sat
(model
(define-fun x () Int 0)
(define-fun y () Int 0)
(define-fun f ((BOUND_VARIABLE_320 Int) (BOUND_VARIABLE_321 Int)) Int 10)
)
sat
(model
(define-fun x () Int 0)
(define-fun y () Int 0)
(define-fun f ((BOUND_VARIABLE_320 Int) (BOUND_VARIABLE_321 Int)) Int 10)
(define-fun z () Int 0)
)
